c DIMACS CNF format
c Generated from: research_4vars_12clauses_seed123.md
c Enhanced pipeline demonstration
c Generated on: 2025-07-15T10:37:21.227
c
p cnf 4 12
2 -3 -4 0
-1 2 4 0
1 -2 3 0
-1 -3 4 0
1 3 -4 0
-2 3 4 0
1 -2 -4 0
-1 2 -3 0
2 3 4 0
-1 -2 -4 0
1 2 -3 0
-1 3 -4 0
